&CONTROL
   calculation      = 'relax'
   restart_mode     = 'from_scratch'
   nstep            = 400
   outdir           = 'WORK'
   max_seconds      = 86000
   etot_conv_thr    = 0.005
   forc_conv_thr    = 0.05
   pseudo_dir       = '/home/pseudo'
/
&SYSTEM
   ecutwfc          = 20
   occupations      = 'smearing'
   degauss          = 0.02
   smearing         = 'gaussian'
   ntyp             = 3
   nat              = 19
   ibrav            = 0
/
&ELECTRONS
   electron_maxstep = 200
   conv_thr         = 1e-06
   mixing_mode      = 'local-TF'
   mixing_beta      = 0.2
   diagonalization  = 'david'
/
&IONS
   ion_dynamics     = 'bfgs'
   upscale          = 1
/
&CELL
   cell_dynamics    = 'bfgs'
/

ATOMIC_SPECIES
F 18.998403163 f_lda_v1.4.uspp.F.UPF
Si 28.085 si_lda_v1.uspp.F.UPF
O 15.999 o_lda_v1.2.uspp.F.UPF

K_POINTS gamma

CELL_PARAMETERS angstrom
5.27563036000000 0.00000000000000 0.00000000000000
2.63781518000000 4.56882991273644 0.00000000000000
2.63781517761605 1.52294330286911 21.53767074012735

ATOMIC_POSITIONS angstrom
O 6.8143558710 3.9342701965 16.8711753413 
Si 6.8143558712 3.9342701966 15.2558500358 
O 5.4954482812 4.6957418487 14.7174082673 
O 6.8143558712 2.4113268924 14.7174082673 
O 8.1332634612 4.6957418487 14.7174082673 
Si 9.4521710513 5.4572135009 14.1789664988 
O 1.5387255115 0.8883835883 12.5636411933 
Si 1.5387255117 0.8883835884 10.9483158878 
O 5.4954482817 1.6498552405 10.4098741193 
O 4.1765406917 3.9342701969 10.4098741193 
O 2.8576331017 1.6498552405 10.4098741193 
Si 4.1765406918 2.4113268927 9.8714323508 
O 4.1765406920 2.4113268928 8.2561070453 
Si 4.1765406921 2.4113268929 6.6407817397 
O 2.8576331022 3.1727985450 6.1023399712 
O 4.1765406922 0.8883835887 6.1023399712 
O 5.4954482822 3.1727985450 6.1023399712 
Si 6.8143558723 3.9342701972 5.5638982027 
F 6.8143558710 3.9342701965 18.8711753413 

